
Gurobi 11.0.0 (win64) logging started Sat Jun 15 09:42:49 2024

Set parameter LogFile to value "./GurobiLog/stage_3_iter_2.log"
Gurobi Optimizer version 11.0.0 build v11.0.0rc2 (win64 - Windows 10.0 (18363.2))

CPU model: Intel(R) Core(TM) i7-8700 CPU @ 3.20GHz, instruction set [SSE2|AVX|AVX2]
Thread count: 6 physical cores, 12 logical processors, using up to 1 threads

Optimize a model with 1065 rows, 10910 columns and 18470 nonzeros
Coefficient statistics:
  Matrix range     [1e+00, 4e+01]
  Objective range  [2e+00, 2e+05]
  Bounds range     [1e+00, 4e+02]
  RHS range        [1e+00, 3e+04]
LP warm-start: use basis
Iteration    Objective       Primal Inf.    Dual Inf.      Time
       0   -1.2751285e+04   1.652492e+04   0.000000e+00      0s
     250    1.7632130e+04   0.000000e+00   0.000000e+00      0s

Solved in 250 iterations and 0.01 seconds (0.01 work units)
Optimal objective  1.763213000e+04

Gurobi 11.0.0 (win64) logging started Sat Jun 15 10:41:13 2024

Set parameter LogFile to value "./GurobiLog/stage_3_iter_2.log"
Gurobi Optimizer version 11.0.0 build v11.0.0rc2 (win64 - Windows 10.0 (18363.2))

CPU model: Intel(R) Core(TM) i7-8700 CPU @ 3.20GHz, instruction set [SSE2|AVX|AVX2]
Thread count: 6 physical cores, 12 logical processors, using up to 1 threads

Optimize a model with 1065 rows, 10910 columns and 18470 nonzeros
Coefficient statistics:
  Matrix range     [1e+00, 4e+01]
  Objective range  [2e+00, 2e+05]
  Bounds range     [1e+00, 1e+04]
  RHS range        [1e+00, 3e+04]
LP warm-start: use basis
Iteration    Objective       Primal Inf.    Dual Inf.      Time
       0   -6.9406130e+04   2.811925e+04   0.000000e+00      0s
     346    1.8021047e+04   0.000000e+00   0.000000e+00      0s

Solved in 346 iterations and 0.01 seconds (0.01 work units)
Optimal objective  1.802104667e+04

Gurobi 11.0.0 (win64) logging started Sat Jun 15 11:00:00 2024

Set parameter LogFile to value "./GurobiLog/stage_3_iter_2.log"
Gurobi Optimizer version 11.0.0 build v11.0.0rc2 (win64 - Windows 10.0 (18363.2))

CPU model: Intel(R) Core(TM) i7-8700 CPU @ 3.20GHz, instruction set [SSE2|AVX|AVX2]
Thread count: 6 physical cores, 12 logical processors, using up to 1 threads

Optimize a model with 1065 rows, 10910 columns and 18470 nonzeros
Coefficient statistics:
  Matrix range     [1e+00, 4e+01]
  Objective range  [2e+00, 2e+05]
  Bounds range     [1e+00, 4e+02]
  RHS range        [1e+00, 3e+04]
LP warm-start: use basis
Iteration    Objective       Primal Inf.    Dual Inf.      Time
       0   -2.0110962e+04   1.144071e+04   0.000000e+00      0s
     253    1.7621005e+04   0.000000e+00   0.000000e+00      0s

Solved in 253 iterations and 0.01 seconds (0.01 work units)
Optimal objective  1.762100500e+04
